# Objective value = 1979.99300433668
x[0] 0
x[1] 0
x[2] 0
x[3] 1
x[4] 1
x[5] 1
x[6] 0
x[7] 1
x[8] 1
x[9] 1
x[10] 1
x[11] 1
x[12] 0
x[13] 0
x[14] 1
x[15] 0
x[16] 0
x[17] 0
x[18] 0
x[19] 0
x[20] 1
x[21] 0
x[22] 1
x[23] 0
x[24] 1
x[25] 0
x[26] 1
x[27] 1
x[28] 1
x[29] 1
x[30] 0
x[31] 0
x[32] 0
x[33] 0
x[34] 1
x[35] 1
x[36] 1
x[37] 0
x[38] 0
x[39] 0
x[40] 1
x[41] 1
x[42] 1
x[43] 0
x[44] 1
x[45] 0
x[46] 0
x[47] 1
x[48] 0
x[49] 0
x[50] 0
x[51] 0
x[52] 1
x[53] 0
x[54] 1
x[55] 1
x[56] 0
x[57] 0
x[58] 1
x[59] 0
x[60] 0
x[61] 1
x[62] 1
x[63] 0
x[64] 1
x[65] 0
x[66] 1
x[67] 1
x[68] 0
x[69] 0
x[70] 0
x[71] 1
x[72] 0
x[73] 0
x[74] 0
x[75] 1
x[76] 1
x[77] 1
x[78] 0
x[79] 1
x[80] 1
x[81] 0
x[82] 0
x[83] 0
x[84] 0
x[85] 0
x[86] 1
x[87] 1
x[88] 1
x[89] 0
x[90] 1
x[91] 1
x[92] 1
x[93] 1
x[94] 0
x[95] 1
x[96] 0
x[97] 1
x[98] 1
x[99] 1
x[100] 0
x[101] 1
x[102] 1
x[103] 1
x[104] 1
x[105] 1
x[106] 1
x[107] 1
x[108] 0
x[109] 1
x[110] 0
x[111] 1
x[112] 0
x[113] 1
x[114] 0
x[115] 1
x[116] 0
x[117] 0
x[118] 0
x[119] 1
x[120] 0
x[121] 0
x[122] 0
x[123] 1
x[124] 0
x[125] 0
x[126] 0
x[127] 0
x[128] 0
x[129] 0
x[130] 0
x[131] 0
x[132] 0
x[133] 1
x[134] 0
x[135] 1
x[136] 1
x[137] 1
x[138] 1
x[139] 0
x[140] 1
x[141] 1
x[142] 0
x[143] 1
x[144] 1
x[145] 1
x[146] 1
x[147] 0
x[148] 1
x[149] 1
x[150] 1
x[151] 0
x[152] 0
x[153] 1
x[154] 0
x[155] 1
x[156] 0
x[157] 0
x[158] 1
x[159] 1
x[160] 1
x[161] 0
x[162] 1
x[163] 0
x[164] 1
x[165] 1
x[166] 1
x[167] 1
x[168] 1
x[169] 1
x[170] 1
x[171] 1
x[172] 0
x[173] 0
x[174] 0
x[175] 1
x[176] 0
x[177] 1
x[178] 1
x[179] 1
x[180] 1
x[181] 1
x[182] 1
x[183] 1
x[184] 1
x[185] 1
x[186] 1
x[187] 1
x[188] 1
x[189] 0
x[190] 0
x[191] 0
x[192] 0
x[193] 1
x[194] 1
x[195] 0
x[196] 0
x[197] 0
x[198] 1
x[199] 0
x[200] 1
x[201] 0
x[202] 1
x[203] 1
x[204] 0
x[205] 1
x[206] 0
x[207] 0
x[208] 1
x[209] 0
x[210] 1
x[211] 1
x[212] 0
x[213] 1
x[214] 0
x[215] 1
x[216] 1
x[217] 0
x[218] 1
x[219] 1
x[220] 1
x[221] 1
x[222] 0
x[223] 1
x[224] 1
x[225] 0
x[226] 1
x[227] 1
x[228] 0
x[229] 1
x[230] 0
x[231] 1
x[232] 0
x[233] 0
x[234] 1
x[235] 1
x[236] 1
x[237] 1
x[238] 0
x[239] 1
x[240] 1
x[241] 0
x[242] 0
x[243] 0
x[244] 1
x[245] 1
x[246] 0
x[247] 1
x[248] 1
x[249] 0
x[250] 1
x[251] 1
x[252] 0
x[253] 0
x[254] 1
x[255] 0
x[256] 1
x[257] 1
x[258] 1
x[259] 0
x[260] 1
x[261] 1
x[262] 0
x[263] 1
x[264] 0
x[265] 1
x[266] 1
x[267] 1
x[268] 0
x[269] 0
x[270] 1
x[271] 0
x[272] 1
x[273] 1
x[274] 1
x[275] 0
x[276] 0
x[277] 1
x[278] 0
x[279] 1
x[280] 0
x[281] 1
x[282] 1
x[283] 1
x[284] 1
x[285] 1
x[286] 0
x[287] 1
x[288] 1
x[289] 1
x[290] 1
x[291] 1
x[292] 1
x[293] 1
x[294] 0
x[295] 1
x[296] 1
x[297] 1
x[298] 0
x[299] 0
x[300] 1
x[301] 0
x[302] 1
x[303] 1
x[304] 0
x[305] 1
x[306] 1
x[307] 0
x[308] 0
x[309] 0
x[310] 0
x[311] 1
x[312] 0
x[313] 1
x[314] 1
x[315] 1
x[316] 0
x[317] 1
x[318] 0
x[319] 1
x[320] 1
x[321] 0
x[322] 1
x[323] 1
x[324] 1
x[325] 0
x[326] 0
x[327] 1
x[328] 1
x[329] 1
x[330] 1
x[331] 1
x[332] 1
x[333] 1
x[334] 1
x[335] 1
x[336] 0
x[337] 1
x[338] 0
x[339] 1
x[340] 1
x[341] 1
x[342] 0
x[343] 1
x[344] 1
x[345] 1
x[346] 1
x[347] 0
x[348] 0
x[349] 0
x[350] 0
x[351] 0
x[352] 1
x[353] 0
x[354] 0
x[355] 1
x[356] 1
x[357] 0
x[358] 1
x[359] 0
x[360] 1
x[361] 1
x[362] 0
x[363] 1
x[364] 1
x[365] 0
x[366] 0
x[367] 1
x[368] 1
x[369] 0
x[370] 0
x[371] 0
x[372] 0
x[373] 0
x[374] 0
x[375] 0
x[376] 1
x[377] 0
x[378] 0
x[379] 0
x[380] 0
x[381] 0
x[382] 1
x[383] 1
x[384] 1
x[385] 0
x[386] 1
x[387] 1
x[388] 1
x[389] 0
x[390] 1
x[391] 1
x[392] 1
x[393] 1
x[394] 0
x[395] 1
x[396] 0
x[397] 0
x[398] 1
x[399] 1
x[400] 0
x[401] 1
x[402] 0
x[403] 1
x[404] 0
x[405] 1
x[406] 1
x[407] 1
x[408] 1
x[409] 0
x[410] 1
x[411] 0
x[412] 0
x[413] 1
x[414] 0
x[415] 1
x[416] 1
x[417] 1
x[418] 1
x[419] 1
x[420] 1
x[421] 0
x[422] 1
x[423] 1
x[424] 0
x[425] 1
x[426] 1
x[427] 0
x[428] 1
x[429] 1
x[430] 0
x[431] 0
x[432] 1
x[433] 0
x[434] 1
x[435] 0
x[436] 0
x[437] 1
x[438] 0
x[439] 0
x[440] 1
x[441] 1
x[442] 1
x[443] 1
x[444] 0
x[445] 1
x[446] 1
x[447] 1
x[448] 0
x[449] 1
x[450] 0
x[451] 1
x[452] 0
x[453] 1
x[454] 1
x[455] 1
x[456] 1
x[457] 0
x[458] 1
x[459] 1
x[460] 0
x[461] 0
x[462] 1
x[463] 1
x[464] 1
x[465] 1
x[466] 0
x[467] 1
x[468] 0
x[469] 0
x[470] 0
x[471] 0
x[472] 1
x[473] 1
x[474] 1
x[475] 1
x[476] 1
x[477] 0
x[478] 0
x[479] 0
x[480] 0
x[481] 0
x[482] 0
x[483] 1
x[484] 1
x[485] 1
x[486] 1
x[487] 1
x[488] 0
x[489] 1
x[490] 1
x[491] 1
x[492] 0
x[493] 0
x[494] 0
x[495] 1
x[496] 1
x[497] 0
x[498] 1
x[499] 1
x[500] 0
x[501] 1
x[502] 1
x[503] 1
x[504] 0
x[505] 0
x[506] 1
x[507] 0
x[508] 0
x[509] 1
x[510] 0
x[511] 0
x[512] 0
x[513] 1
x[514] 0
x[515] 1
x[516] 1
x[517] 0
x[518] 1
x[519] 1
x[520] 1
x[521] 0
x[522] 1
x[523] 0
x[524] 1
x[525] 1
x[526] 1
x[527] 1
x[528] 1
x[529] 0
x[530] 1
x[531] 1
x[532] 0
x[533] 1
x[534] 0
x[535] 1
x[536] 0
x[537] 1
x[538] 0
x[539] 1
x[540] 0
x[541] 0
x[542] 0
x[543] 0
x[544] 0
x[545] 0
x[546] 0
x[547] 0
x[548] 0
x[549] 1
x[550] 0
x[551] 1
x[552] 1
x[553] 1
x[554] 1
x[555] 0
x[556] 0
x[557] 1
x[558] 1
x[559] 0
x[560] 1
x[561] 1
x[562] 1
x[563] 0
x[564] 0
x[565] 0
x[566] 0
x[567] 1
x[568] 1
x[569] 0
x[570] 1
x[571] 0
x[572] 0
x[573] 0
x[574] 0
x[575] 1
x[576] 0
x[577] 0
x[578] 0
x[579] 1
x[580] 1
x[581] 0
x[582] 0
x[583] 0
x[584] 1
x[585] 0
x[586] 1
x[587] 0
x[588] 0
x[589] 1
x[590] 0
x[591] 0
x[592] 0
x[593] 1
x[594] 1
x[595] 1
x[596] 1
x[597] 1
x[598] 0
x[599] 1
x[600] 1
x[601] 0
x[602] 1
x[603] 0
x[604] 1
x[605] 0
x[606] 1
x[607] 0
x[608] 0
x[609] 1
x[610] 0
x[611] 1
x[612] 1
x[613] 0
x[614] 1
x[615] 0
x[616] 0
x[617] 0
x[618] 1
x[619] 1
x[620] 1
x[621] 1
x[622] 1
x[623] 1
x[624] 1
x[625] 0
x[626] 0
x[627] 1
x[628] 1
x[629] 1
x[630] 0
x[631] 1
x[632] 0
x[633] 1
x[634] 0
x[635] 1
x[636] 1
x[637] 0
x[638] 1
x[639] 0
x[640] 1
x[641] 0
x[642] 0
x[643] 0
x[644] 1
x[645] 0
x[646] 0
x[647] 1
x[648] 0
x[649] 1
x[650] 0
x[651] 1
x[652] 1
x[653] 1
x[654] 1
x[655] 1
x[656] 0
x[657] 1
x[658] 0
x[659] 1
x[660] 1
x[661] 0
x[662] 1
x[663] 1
x[664] 1
x[665] 1
x[666] 0
x[667] 1
x[668] 0
x[669] 0
x[670] 1
x[671] 0
x[672] 0
x[673] 1
x[674] 0
x[675] 0
x[676] 1
x[677] 1
x[678] 1
x[679] 1
x[680] 1
x[681] 0
x[682] 1
x[683] 0
x[684] 0
x[685] 0
x[686] 1
x[687] 1
x[688] 0
x[689] 0
x[690] 1
x[691] 0
x[692] 1
x[693] 1
x[694] 1
x[695] 1
x[696] 0
x[697] 0
x[698] 0
x[699] 1
x[700] 1
x[701] 1
x[702] 1
x[703] 1
x[704] 0
x[705] 1
x[706] 1
x[707] 0
x[708] 0
x[709] 1
x[710] 1
x[711] 0
x[712] 1
x[713] 0
x[714] 0
x[715] 1
x[716] 1
x[717] 0
x[718] 1
x[719] 1
x[720] 0
x[721] 0
x[722] 0
x[723] 1
x[724] 1
x[725] 1
x[726] 0
x[727] 1
x[728] 0
x[729] 1
x[730] 0
x[731] 1
x[732] 1
x[733] 0
x[734] 0
x[735] 1
x[736] 0
x[737] 1
x[738] 0
x[739] 1
x[740] 0
x[741] 0
x[742] 0
x[743] 1
x[744] 1
x[745] 0
x[746] 0
x[747] 0
x[748] 0
x[749] 1
x[750] 0
x[751] 1
x[752] 0
x[753] 1
x[754] 1
x[755] 0
x[756] 1
x[757] 1
x[758] 0
x[759] 0
x[760] 0
x[761] 1
x[762] 1
x[763] 0
x[764] 0
x[765] 1
x[766] 1
x[767] 1
x[768] 0
x[769] 0
x[770] 1
x[771] 1
x[772] 1
x[773] 0
x[774] 1
x[775] 1
x[776] 1
x[777] 1
x[778] 0
x[779] 1
x[780] 1
x[781] 1
x[782] 1
x[783] 1
x[784] 0
x[785] 1
x[786] 1
x[787] 1
x[788] 0
x[789] 1
x[790] 0
x[791] 0
x[792] 1
x[793] 1
x[794] 1
x[795] 1
x[796] 0
x[797] 0
x[798] 1
x[799] 0
x[800] 0
x[801] 0
x[802] 0
x[803] 1
x[804] 1
x[805] 1
x[806] 0
x[807] 0
x[808] 0
x[809] 0
x[810] 1
x[811] 1
x[812] 1
x[813] 1
x[814] 1
x[815] 0
x[816] 1
x[817] 1
x[818] 0
x[819] 1
x[820] 0
x[821] 1
x[822] 1
x[823] 1
x[824] 1
x[825] 0
x[826] 1
x[827] 0
x[828] 1
x[829] 1
x[830] 1
x[831] 1
x[832] 1
x[833] 1
x[834] 1
x[835] 0
x[836] 0
x[837] 0
x[838] 0
x[839] 0
x[840] 0
x[841] 1
x[842] 1
x[843] 1
x[844] 1
x[845] 1
x[846] 1
x[847] 0
x[848] 1
x[849] 1
x[850] 0
x[851] 1
x[852] 1
x[853] 1
x[854] 0
x[855] 0
x[856] 1
x[857] 0
x[858] 0
x[859] 1
x[860] 0
x[861] 1
x[862] 1
x[863] 1
x[864] 0
x[865] 1
x[866] 1
x[867] 1
x[868] 1
x[869] 1
x[870] 0
x[871] 1
x[872] 1
x[873] 1
x[874] 1
x[875] 1
x[876] 0
x[877] 1
x[878] 0
x[879] 0
x[880] 0
x[881] 0
x[882] 0
x[883] 0
x[884] 0
x[885] 1
x[886] 1
x[887] 1
x[888] 0
x[889] 0
x[890] 0
x[891] 1
x[892] 0
x[893] 1
x[894] 1
x[895] 1
x[896] 1
x[897] 0
x[898] 1
x[899] 1
x[900] 0
x[901] 0
x[902] 1
x[903] 1
x[904] 0
x[905] 1
x[906] 0
x[907] 1
x[908] 0
x[909] 0
x[910] 0
x[911] 0
x[912] 0
x[913] 1
x[914] 1
x[915] 1
x[916] 0
x[917] 1
x[918] 0
x[919] 0
x[920] 0
x[921] 1
x[922] 0
x[923] 1
x[924] 0
x[925] 1
x[926] 1
x[927] 1
x[928] 0
x[929] 1
x[930] 0
x[931] 0
x[932] 0
x[933] 0
x[934] 1
x[935] 1
x[936] 1
x[937] 1
x[938] 1
x[939] 1
x[940] 1
x[941] 0
x[942] 1
x[943] 0
x[944] 1
x[945] 0
x[946] 0
x[947] 1
x[948] 1
x[949] 0
x[950] 0
x[951] 1
x[952] 1
x[953] 1
x[954] 1
x[955] 1
x[956] 0
x[957] 0
x[958] 1
x[959] 1
x[960] 1
x[961] 1
x[962] 0
x[963] 1
x[964] 0
x[965] 1
x[966] 0
x[967] 0
x[968] 1
x[969] 0
x[970] 0
x[971] 1
x[972] 0
x[973] 0
x[974] 0
x[975] 1
x[976] 1
x[977] 0
x[978] 1
x[979] 0
x[980] 1
x[981] 1
x[982] 0
x[983] 1
x[984] 0
x[985] 0
x[986] 1
x[987] 0
x[988] 0
x[989] 1
x[990] 1
x[991] 1
x[992] 0
x[993] 1
x[994] 1
x[995] 0
x[996] 1
x[997] 1
x[998] 0
x[999] 0
